Problem:    ex1
Rows:       3
Columns:    4
Non-zeros:  11
Status:     OPTIMAL
Objective:  z = 15 (MINimum)

   No.   Row name   St   Activity     Lower bound   Upper bound    Marginal
------ ------------ -- ------------- ------------- ------------- -------------
     1 z            B             15                             
     2 r1           NS             2             2             =          5.25 
     3 r2           NS             2             2             =          2.25 

   No. Column name  St   Activity     Lower bound   Upper bound    Marginal
------ ------------ -- ------------- ------------- ------------- -------------
     1 x[4]         NL             0             0                           3 
     2 x[3]         NL             0             0                        12.5 
     3 x[2]         B            0.5             0               
     4 x[1]         B            0.5             0               

Karush-Kuhn-Tucker optimality conditions:

KKT.PE: max.abs.err = 0.00e+00 on row 0
        max.rel.err = 0.00e+00 on row 0
        High quality

KKT.PB: max.abs.err = 0.00e+00 on row 0
        max.rel.err = 0.00e+00 on row 0
        High quality

KKT.DE: max.abs.err = 0.00e+00 on column 0
        max.rel.err = 0.00e+00 on column 0
        High quality

KKT.DB: max.abs.err = 0.00e+00 on row 0
        max.rel.err = 0.00e+00 on row 0
        High quality

End of output
